interfaces/ampl/check/instances/SOS/sos1a.col
s1
s2
s3
